; benchmark generated from python API
(set-info :status unknown)
(declare-fun cell_1_1 () Int)
(declare-fun cell_1_2 () Int)
(declare-fun cell_1_3 () Int)
(declare-fun cell_1_4 () Int)
(declare-fun cell_1_5 () Int)
(declare-fun cell_2_1 () Int)
(declare-fun cell_3_1 () Int)
(declare-fun cell_4_1 () Int)
(declare-fun cell_5_1 () Int)
(declare-fun cell_6_1 () Int)
(declare-fun cell_7_1 () Int)
(declare-fun cell_8_1 () Int)
(declare-fun cell_9_1 () Int)
(declare-fun cell_2_2 () Int)
(declare-fun cell_3_2 () Int)
(declare-fun cell_4_2 () Int)
(declare-fun cell_5_2 () Int)
(declare-fun cell_6_2 () Int)
(declare-fun cell_7_2 () Int)
(declare-fun cell_8_2 () Int)
(declare-fun cell_9_2 () Int)
(declare-fun cell_2_3 () Int)
(declare-fun cell_3_3 () Int)
(declare-fun cell_4_3 () Int)
(declare-fun cell_5_3 () Int)
(declare-fun cell_6_3 () Int)
(declare-fun cell_7_3 () Int)
(declare-fun cell_8_3 () Int)
(declare-fun cell_9_3 () Int)
(declare-fun cell_2_4 () Int)
(declare-fun cell_3_4 () Int)
(declare-fun cell_4_4 () Int)
(declare-fun cell_5_4 () Int)
(declare-fun cell_6_4 () Int)
(declare-fun cell_7_4 () Int)
(declare-fun cell_8_4 () Int)
(declare-fun cell_9_4 () Int)
(declare-fun cell_2_5 () Int)
(declare-fun cell_3_5 () Int)
(declare-fun cell_4_5 () Int)
(declare-fun cell_5_5 () Int)
(declare-fun cell_6_5 () Int)
(declare-fun cell_7_5 () Int)
(declare-fun cell_8_5 () Int)
(declare-fun cell_9_5 () Int)
(declare-fun cell_1_6 () Int)
(declare-fun cell_2_6 () Int)
(declare-fun cell_3_6 () Int)
(declare-fun cell_4_6 () Int)
(declare-fun cell_5_6 () Int)
(declare-fun cell_6_6 () Int)
(declare-fun cell_7_6 () Int)
(declare-fun cell_8_6 () Int)
(declare-fun cell_9_6 () Int)
(declare-fun cell_1_7 () Int)
(declare-fun cell_2_7 () Int)
(declare-fun cell_3_7 () Int)
(declare-fun cell_4_7 () Int)
(declare-fun cell_5_7 () Int)
(declare-fun cell_6_7 () Int)
(declare-fun cell_7_7 () Int)
(declare-fun cell_8_7 () Int)
(declare-fun cell_9_7 () Int)
(declare-fun cell_1_8 () Int)
(declare-fun cell_2_8 () Int)
(declare-fun cell_3_8 () Int)
(declare-fun cell_4_8 () Int)
(declare-fun cell_5_8 () Int)
(declare-fun cell_6_8 () Int)
(declare-fun cell_7_8 () Int)
(declare-fun cell_8_8 () Int)
(declare-fun cell_9_8 () Int)
(declare-fun cell_1_9 () Int)
(declare-fun cell_2_9 () Int)
(declare-fun cell_3_9 () Int)
(declare-fun cell_4_9 () Int)
(declare-fun cell_5_9 () Int)
(declare-fun cell_6_9 () Int)
(declare-fun cell_7_9 () Int)
(declare-fun cell_8_9 () Int)
(declare-fun cell_9_9 () Int)
(assert
 (= cell_1_1 9))
(assert
 (= cell_1_2 5))
(assert
 (= cell_1_3 8))
(assert
 (= cell_1_4 1))
(assert
 (= cell_1_5 3))
(assert
 (let (($x6753 (= cell_1_1 9)))
 (or (= cell_1_1 1) (= cell_1_1 2) (= cell_1_1 3) (= cell_1_1 4) (= cell_1_1 5) (= cell_1_1 6) (= cell_1_1 7) (= cell_1_1 8) $x6753)))
(assert
 (let (($x4994 (= cell_2_1 9)))
 (let (($x191 (= cell_2_1 8)))
 (let (($x8642 (= cell_2_1 5)))
 (or (= cell_2_1 1) (= cell_2_1 2) (= cell_2_1 3) (= cell_2_1 4) $x8642 (= cell_2_1 6) (= cell_2_1 7) $x191 $x4994)))))
(assert
 (let (($x1501 (= cell_3_1 9)))
 (let (($x1834 (= cell_3_1 8)))
 (let (($x4189 (= cell_3_1 5)))
 (or (= cell_3_1 1) (= cell_3_1 2) (= cell_3_1 3) (= cell_3_1 4) $x4189 (= cell_3_1 6) (= cell_3_1 7) $x1834 $x1501)))))
(assert
 (let (($x1586 (= cell_4_1 9)))
 (or (= cell_4_1 1) (= cell_4_1 2) (= cell_4_1 3) (= cell_4_1 4) (= cell_4_1 5) (= cell_4_1 6) (= cell_4_1 7) (= cell_4_1 8) $x1586)))
(assert
 (let (($x8173 (= cell_5_1 9)))
 (or (= cell_5_1 1) (= cell_5_1 2) (= cell_5_1 3) (= cell_5_1 4) (= cell_5_1 5) (= cell_5_1 6) (= cell_5_1 7) (= cell_5_1 8) $x8173)))
(assert
 (let (($x5829 (= cell_6_1 9)))
 (or (= cell_6_1 1) (= cell_6_1 2) (= cell_6_1 3) (= cell_6_1 4) (= cell_6_1 5) (= cell_6_1 6) (= cell_6_1 7) (= cell_6_1 8) $x5829)))
(assert
 (let (($x10091 (= cell_7_1 9)))
 (or (= cell_7_1 1) (= cell_7_1 2) (= cell_7_1 3) (= cell_7_1 4) (= cell_7_1 5) (= cell_7_1 6) (= cell_7_1 7) (= cell_7_1 8) $x10091)))
(assert
 (let (($x3566 (= cell_8_1 9)))
 (or (= cell_8_1 1) (= cell_8_1 2) (= cell_8_1 3) (= cell_8_1 4) (= cell_8_1 5) (= cell_8_1 6) (= cell_8_1 7) (= cell_8_1 8) $x3566)))
(assert
 (let (($x2117 (= cell_9_1 9)))
 (or (= cell_9_1 1) (= cell_9_1 2) (= cell_9_1 3) (= cell_9_1 4) (= cell_9_1 5) (= cell_9_1 6) (= cell_9_1 7) (= cell_9_1 8) $x2117)))
(assert
 (let (($x4273 (= cell_1_2 5)))
 (or (= cell_1_2 1) (= cell_1_2 2) (= cell_1_2 3) (= cell_1_2 4) $x4273 (= cell_1_2 6) (= cell_1_2 7) (= cell_1_2 8) (= cell_1_2 9))))
(assert
 (let (($x5387 (= cell_2_2 9)))
 (let (($x687 (= cell_2_2 8)))
 (let (($x5727 (= cell_2_2 5)))
 (or (= cell_2_2 1) (= cell_2_2 2) (= cell_2_2 3) (= cell_2_2 4) $x5727 (= cell_2_2 6) (= cell_2_2 7) $x687 $x5387)))))
(assert
 (let (($x3078 (= cell_3_2 9)))
 (let (($x437 (= cell_3_2 8)))
 (let (($x5112 (= cell_3_2 5)))
 (or (= cell_3_2 1) (= cell_3_2 2) (= cell_3_2 3) (= cell_3_2 4) $x5112 (= cell_3_2 6) (= cell_3_2 7) $x437 $x3078)))))
(assert
 (let (($x293 (= cell_4_2 5)))
 (let (($x3034 (= cell_4_2 3)))
 (or (= cell_4_2 1) (= cell_4_2 2) $x3034 (= cell_4_2 4) $x293 (= cell_4_2 6) (= cell_4_2 7) (= cell_4_2 8) (= cell_4_2 9)))))
(assert
 (let (($x3267 (= cell_5_2 5)))
 (or (= cell_5_2 1) (= cell_5_2 2) (= cell_5_2 3) (= cell_5_2 4) $x3267 (= cell_5_2 6) (= cell_5_2 7) (= cell_5_2 8) (= cell_5_2 9))))
(assert
 (let (($x919 (= cell_6_2 5)))
 (or (= cell_6_2 1) (= cell_6_2 2) (= cell_6_2 3) (= cell_6_2 4) $x919 (= cell_6_2 6) (= cell_6_2 7) (= cell_6_2 8) (= cell_6_2 9))))
(assert
 (let (($x1391 (= cell_7_2 5)))
 (or (= cell_7_2 1) (= cell_7_2 2) (= cell_7_2 3) (= cell_7_2 4) $x1391 (= cell_7_2 6) (= cell_7_2 7) (= cell_7_2 8) (= cell_7_2 9))))
(assert
 (let (($x1483 (= cell_8_2 5)))
 (or (= cell_8_2 1) (= cell_8_2 2) (= cell_8_2 3) (= cell_8_2 4) $x1483 (= cell_8_2 6) (= cell_8_2 7) (= cell_8_2 8) (= cell_8_2 9))))
(assert
 (let (($x6131 (= cell_9_2 5)))
 (or (= cell_9_2 1) (= cell_9_2 2) (= cell_9_2 3) (= cell_9_2 4) $x6131 (= cell_9_2 6) (= cell_9_2 7) (= cell_9_2 8) (= cell_9_2 9))))
(assert
 (let (($x3407 (= cell_1_3 8)))
 (or (= cell_1_3 1) (= cell_1_3 2) (= cell_1_3 3) (= cell_1_3 4) (= cell_1_3 5) (= cell_1_3 6) (= cell_1_3 7) $x3407 (= cell_1_3 9))))
(assert
 (let (($x880 (= cell_2_3 9)))
 (let (($x9018 (= cell_2_3 8)))
 (let (($x3510 (= cell_2_3 5)))
 (or (= cell_2_3 1) (= cell_2_3 2) (= cell_2_3 3) (= cell_2_3 4) $x3510 (= cell_2_3 6) (= cell_2_3 7) $x9018 $x880)))))
(assert
 (let (($x1046 (= cell_3_3 9)))
 (let (($x231 (= cell_3_3 8)))
 (let (($x5394 (= cell_3_3 5)))
 (let (($x7233 (= cell_3_3 3)))
 (or (= cell_3_3 1) (= cell_3_3 2) $x7233 (= cell_3_3 4) $x5394 (= cell_3_3 6) (= cell_3_3 7) $x231 $x1046))))))
(assert
 (let (($x2661 (= cell_4_3 8)))
 (or (= cell_4_3 1) (= cell_4_3 2) (= cell_4_3 3) (= cell_4_3 4) (= cell_4_3 5) (= cell_4_3 6) (= cell_4_3 7) $x2661 (= cell_4_3 9))))
(assert
 (let (($x6579 (= cell_5_3 8)))
 (or (= cell_5_3 1) (= cell_5_3 2) (= cell_5_3 3) (= cell_5_3 4) (= cell_5_3 5) (= cell_5_3 6) (= cell_5_3 7) $x6579 (= cell_5_3 9))))
(assert
 (let (($x8370 (= cell_6_3 8)))
 (or (= cell_6_3 1) (= cell_6_3 2) (= cell_6_3 3) (= cell_6_3 4) (= cell_6_3 5) (= cell_6_3 6) (= cell_6_3 7) $x8370 (= cell_6_3 9))))
(assert
 (let (($x6437 (= cell_7_3 8)))
 (or (= cell_7_3 1) (= cell_7_3 2) (= cell_7_3 3) (= cell_7_3 4) (= cell_7_3 5) (= cell_7_3 6) (= cell_7_3 7) $x6437 (= cell_7_3 9))))
(assert
 (let (($x8002 (= cell_8_3 8)))
 (or (= cell_8_3 1) (= cell_8_3 2) (= cell_8_3 3) (= cell_8_3 4) (= cell_8_3 5) (= cell_8_3 6) (= cell_8_3 7) $x8002 (= cell_8_3 9))))
(assert
 (let (($x8089 (= cell_9_3 8)))
 (or (= cell_9_3 1) (= cell_9_3 2) (= cell_9_3 3) (= cell_9_3 4) (= cell_9_3 5) (= cell_9_3 6) (= cell_9_3 7) $x8089 (= cell_9_3 9))))
(assert
 (let (($x10024 (= cell_1_4 1)))
 (or $x10024 (= cell_1_4 2) (= cell_1_4 3) (= cell_1_4 4) (= cell_1_4 5) (= cell_1_4 6) (= cell_1_4 7) (= cell_1_4 8) (= cell_1_4 9))))
(assert
 (let (($x5014 (= cell_2_4 3)))
 (let (($x2211 (= cell_2_4 1)))
 (or $x2211 (= cell_2_4 2) $x5014 (= cell_2_4 4) (= cell_2_4 5) (= cell_2_4 6) (= cell_2_4 7) (= cell_2_4 8) (= cell_2_4 9)))))
(assert
 (let (($x8494 (= cell_3_4 5)))
 (let (($x3818 (= cell_3_4 3)))
 (let (($x1208 (= cell_3_4 1)))
 (or $x1208 (= cell_3_4 2) $x3818 (= cell_3_4 4) $x8494 (= cell_3_4 6) (= cell_3_4 7) (= cell_3_4 8) (= cell_3_4 9))))))
(assert
 (let (($x9881 (= cell_4_4 1)))
 (or $x9881 (= cell_4_4 2) (= cell_4_4 3) (= cell_4_4 4) (= cell_4_4 5) (= cell_4_4 6) (= cell_4_4 7) (= cell_4_4 8) (= cell_4_4 9))))
(assert
 (let (($x9186 (= cell_5_4 1)))
 (or $x9186 (= cell_5_4 2) (= cell_5_4 3) (= cell_5_4 4) (= cell_5_4 5) (= cell_5_4 6) (= cell_5_4 7) (= cell_5_4 8) (= cell_5_4 9))))
(assert
 (let (($x4431 (= cell_6_4 1)))
 (or $x4431 (= cell_6_4 2) (= cell_6_4 3) (= cell_6_4 4) (= cell_6_4 5) (= cell_6_4 6) (= cell_6_4 7) (= cell_6_4 8) (= cell_6_4 9))))
(assert
 (let (($x4457 (= cell_7_4 1)))
 (or $x4457 (= cell_7_4 2) (= cell_7_4 3) (= cell_7_4 4) (= cell_7_4 5) (= cell_7_4 6) (= cell_7_4 7) (= cell_7_4 8) (= cell_7_4 9))))
(assert
 (let (($x6592 (= cell_8_4 1)))
 (or $x6592 (= cell_8_4 2) (= cell_8_4 3) (= cell_8_4 4) (= cell_8_4 5) (= cell_8_4 6) (= cell_8_4 7) (= cell_8_4 8) (= cell_8_4 9))))
(assert
 (let (($x9884 (= cell_9_4 1)))
 (or $x9884 (= cell_9_4 2) (= cell_9_4 3) (= cell_9_4 4) (= cell_9_4 5) (= cell_9_4 6) (= cell_9_4 7) (= cell_9_4 8) (= cell_9_4 9))))
(assert
 (let (($x8775 (= cell_1_5 3)))
 (or (= cell_1_5 1) (= cell_1_5 2) $x8775 (= cell_1_5 4) (= cell_1_5 5) (= cell_1_5 6) (= cell_1_5 7) (= cell_1_5 8) (= cell_1_5 9))))
(assert
 (let (($x4473 (= cell_2_5 3)))
 (let (($x9925 (= cell_2_5 1)))
 (or $x9925 (= cell_2_5 2) $x4473 (= cell_2_5 4) (= cell_2_5 5) (= cell_2_5 6) (= cell_2_5 7) (= cell_2_5 8) (= cell_2_5 9)))))
(assert
 (let (($x9094 (= cell_3_5 3)))
 (let (($x1690 (= cell_3_5 1)))
 (or $x1690 (= cell_3_5 2) $x9094 (= cell_3_5 4) (= cell_3_5 5) (= cell_3_5 6) (= cell_3_5 7) (= cell_3_5 8) (= cell_3_5 9)))))
(assert
 (let (($x6553 (= cell_4_5 5)))
 (let (($x3016 (= cell_4_5 3)))
 (or (= cell_4_5 1) (= cell_4_5 2) $x3016 (= cell_4_5 4) $x6553 (= cell_4_5 6) (= cell_4_5 7) (= cell_4_5 8) (= cell_4_5 9)))))
(assert
 (let (($x1042 (= cell_5_5 3)))
 (or (= cell_5_5 1) (= cell_5_5 2) $x1042 (= cell_5_5 4) (= cell_5_5 5) (= cell_5_5 6) (= cell_5_5 7) (= cell_5_5 8) (= cell_5_5 9))))
(assert
 (let (($x1126 (= cell_6_5 3)))
 (or (= cell_6_5 1) (= cell_6_5 2) $x1126 (= cell_6_5 4) (= cell_6_5 5) (= cell_6_5 6) (= cell_6_5 7) (= cell_6_5 8) (= cell_6_5 9))))
(assert
 (let (($x1900 (= cell_7_5 3)))
 (or (= cell_7_5 1) (= cell_7_5 2) $x1900 (= cell_7_5 4) (= cell_7_5 5) (= cell_7_5 6) (= cell_7_5 7) (= cell_7_5 8) (= cell_7_5 9))))
(assert
 (let (($x2821 (= cell_8_5 3)))
 (or (= cell_8_5 1) (= cell_8_5 2) $x2821 (= cell_8_5 4) (= cell_8_5 5) (= cell_8_5 6) (= cell_8_5 7) (= cell_8_5 8) (= cell_8_5 9))))
(assert
 (let (($x9494 (= cell_9_5 3)))
 (or (= cell_9_5 1) (= cell_9_5 2) $x9494 (= cell_9_5 4) (= cell_9_5 5) (= cell_9_5 6) (= cell_9_5 7) (= cell_9_5 8) (= cell_9_5 9))))
(assert
 (let (($x9910 (= cell_1_6 9)))
 (let (($x3651 (= cell_1_6 8)))
 (let (($x7271 (= cell_1_6 6)))
 (let (($x136 (= cell_1_6 5)))
 (let (($x6970 (= cell_1_6 3)))
 (let (($x3471 (= cell_1_6 1)))
 (or $x3471 (= cell_1_6 2) $x6970 (= cell_1_6 4) $x136 $x7271 (= cell_1_6 7) $x3651 $x9910))))))))
(assert
 (let (($x3673 (= cell_2_6 3)))
 (let (($x6726 (= cell_2_6 1)))
 (or $x6726 (= cell_2_6 2) $x3673 (= cell_2_6 4) (= cell_2_6 5) (= cell_2_6 6) (= cell_2_6 7) (= cell_2_6 8) (= cell_2_6 9)))))
(assert
 (let (($x8036 (= cell_3_6 3)))
 (let (($x2561 (= cell_3_6 1)))
 (or $x2561 (= cell_3_6 2) $x8036 (= cell_3_6 4) (= cell_3_6 5) (= cell_3_6 6) (= cell_3_6 7) (= cell_3_6 8) (= cell_3_6 9)))))
(assert
 (or (= cell_4_6 1) (= cell_4_6 2) (= cell_4_6 3) (= cell_4_6 4) (= cell_4_6 5) (= cell_4_6 6) (= cell_4_6 7) (= cell_4_6 8) (= cell_4_6 9)))
(assert
 (let (($x9890 (= cell_5_6 5)))
 (or (= cell_5_6 1) (= cell_5_6 2) (= cell_5_6 3) (= cell_5_6 4) $x9890 (= cell_5_6 6) (= cell_5_6 7) (= cell_5_6 8) (= cell_5_6 9))))
(assert
 (or (= cell_6_6 1) (= cell_6_6 2) (= cell_6_6 3) (= cell_6_6 4) (= cell_6_6 5) (= cell_6_6 6) (= cell_6_6 7) (= cell_6_6 8) (= cell_6_6 9)))
(assert
 (or (= cell_7_6 1) (= cell_7_6 2) (= cell_7_6 3) (= cell_7_6 4) (= cell_7_6 5) (= cell_7_6 6) (= cell_7_6 7) (= cell_7_6 8) (= cell_7_6 9)))
(assert
 (or (= cell_8_6 1) (= cell_8_6 2) (= cell_8_6 3) (= cell_8_6 4) (= cell_8_6 5) (= cell_8_6 6) (= cell_8_6 7) (= cell_8_6 8) (= cell_8_6 9)))
(assert
 (or (= cell_9_6 1) (= cell_9_6 2) (= cell_9_6 3) (= cell_9_6 4) (= cell_9_6 5) (= cell_9_6 6) (= cell_9_6 7) (= cell_9_6 8) (= cell_9_6 9)))
(assert
 (let (($x3456 (= cell_1_7 9)))
 (let (($x5314 (= cell_1_7 8)))
 (let (($x1844 (= cell_1_7 5)))
 (let (($x3307 (= cell_1_7 3)))
 (let (($x6718 (= cell_1_7 1)))
 (or $x6718 (= cell_1_7 2) $x3307 (= cell_1_7 4) $x1844 (= cell_1_7 6) (= cell_1_7 7) $x5314 $x3456)))))))
(assert
 (or (= cell_2_7 1) (= cell_2_7 2) (= cell_2_7 3) (= cell_2_7 4) (= cell_2_7 5) (= cell_2_7 6) (= cell_2_7 7) (= cell_2_7 8) (= cell_2_7 9)))
(assert
 (let (($x9244 (= cell_3_7 3)))
 (or (= cell_3_7 1) (= cell_3_7 2) $x9244 (= cell_3_7 4) (= cell_3_7 5) (= cell_3_7 6) (= cell_3_7 7) (= cell_3_7 8) (= cell_3_7 9))))
(assert
 (or (= cell_4_7 1) (= cell_4_7 2) (= cell_4_7 3) (= cell_4_7 4) (= cell_4_7 5) (= cell_4_7 6) (= cell_4_7 7) (= cell_4_7 8) (= cell_4_7 9)))
(assert
 (or (= cell_5_7 1) (= cell_5_7 2) (= cell_5_7 3) (= cell_5_7 4) (= cell_5_7 5) (= cell_5_7 6) (= cell_5_7 7) (= cell_5_7 8) (= cell_5_7 9)))
(assert
 (let (($x6555 (= cell_6_7 5)))
 (or (= cell_6_7 1) (= cell_6_7 2) (= cell_6_7 3) (= cell_6_7 4) $x6555 (= cell_6_7 6) (= cell_6_7 7) (= cell_6_7 8) (= cell_6_7 9))))
(assert
 (or (= cell_7_7 1) (= cell_7_7 2) (= cell_7_7 3) (= cell_7_7 4) (= cell_7_7 5) (= cell_7_7 6) (= cell_7_7 7) (= cell_7_7 8) (= cell_7_7 9)))
(assert
 (or (= cell_8_7 1) (= cell_8_7 2) (= cell_8_7 3) (= cell_8_7 4) (= cell_8_7 5) (= cell_8_7 6) (= cell_8_7 7) (= cell_8_7 8) (= cell_8_7 9)))
(assert
 (or (= cell_9_7 1) (= cell_9_7 2) (= cell_9_7 3) (= cell_9_7 4) (= cell_9_7 5) (= cell_9_7 6) (= cell_9_7 7) (= cell_9_7 8) (= cell_9_7 9)))
(assert
 (let (($x151 (= cell_1_8 9)))
 (let (($x4905 (= cell_1_8 8)))
 (let (($x3810 (= cell_1_8 5)))
 (let (($x5034 (= cell_1_8 3)))
 (let (($x7421 (= cell_1_8 1)))
 (or $x7421 (= cell_1_8 2) $x5034 (= cell_1_8 4) $x3810 (= cell_1_8 6) (= cell_1_8 7) $x4905 $x151)))))))
(assert
 (or (= cell_2_8 1) (= cell_2_8 2) (= cell_2_8 3) (= cell_2_8 4) (= cell_2_8 5) (= cell_2_8 6) (= cell_2_8 7) (= cell_2_8 8) (= cell_2_8 9)))
(assert
 (or (= cell_3_8 1) (= cell_3_8 2) (= cell_3_8 3) (= cell_3_8 4) (= cell_3_8 5) (= cell_3_8 6) (= cell_3_8 7) (= cell_3_8 8) (= cell_3_8 9)))
(assert
 (let (($x4343 (= cell_4_8 3)))
 (or (= cell_4_8 1) (= cell_4_8 2) $x4343 (= cell_4_8 4) (= cell_4_8 5) (= cell_4_8 6) (= cell_4_8 7) (= cell_4_8 8) (= cell_4_8 9))))
(assert
 (or (= cell_5_8 1) (= cell_5_8 2) (= cell_5_8 3) (= cell_5_8 4) (= cell_5_8 5) (= cell_5_8 6) (= cell_5_8 7) (= cell_5_8 8) (= cell_5_8 9)))
(assert
 (or (= cell_6_8 1) (= cell_6_8 2) (= cell_6_8 3) (= cell_6_8 4) (= cell_6_8 5) (= cell_6_8 6) (= cell_6_8 7) (= cell_6_8 8) (= cell_6_8 9)))
(assert
 (let (($x1477 (= cell_7_8 5)))
 (or (= cell_7_8 1) (= cell_7_8 2) (= cell_7_8 3) (= cell_7_8 4) $x1477 (= cell_7_8 6) (= cell_7_8 7) (= cell_7_8 8) (= cell_7_8 9))))
(assert
 (or (= cell_8_8 1) (= cell_8_8 2) (= cell_8_8 3) (= cell_8_8 4) (= cell_8_8 5) (= cell_8_8 6) (= cell_8_8 7) (= cell_8_8 8) (= cell_8_8 9)))
(assert
 (or (= cell_9_8 1) (= cell_9_8 2) (= cell_9_8 3) (= cell_9_8 4) (= cell_9_8 5) (= cell_9_8 6) (= cell_9_8 7) (= cell_9_8 8) (= cell_9_8 9)))
(assert
 (let (($x9345 (= cell_1_9 9)))
 (let (($x56 (= cell_1_9 8)))
 (let (($x963 (= cell_1_9 5)))
 (let (($x3636 (= cell_1_9 3)))
 (let (($x7554 (= cell_1_9 1)))
 (or $x7554 (= cell_1_9 2) $x3636 (= cell_1_9 4) $x963 (= cell_1_9 6) (= cell_1_9 7) $x56 $x9345)))))))
(assert
 (or (= cell_2_9 1) (= cell_2_9 2) (= cell_2_9 3) (= cell_2_9 4) (= cell_2_9 5) (= cell_2_9 6) (= cell_2_9 7) (= cell_2_9 8) (= cell_2_9 9)))
(assert
 (or (= cell_3_9 1) (= cell_3_9 2) (= cell_3_9 3) (= cell_3_9 4) (= cell_3_9 5) (= cell_3_9 6) (= cell_3_9 7) (= cell_3_9 8) (= cell_3_9 9)))
(assert
 (or (= cell_4_9 1) (= cell_4_9 2) (= cell_4_9 3) (= cell_4_9 4) (= cell_4_9 5) (= cell_4_9 6) (= cell_4_9 7) (= cell_4_9 8) (= cell_4_9 9)))
(assert
 (or (= cell_5_9 1) (= cell_5_9 2) (= cell_5_9 3) (= cell_5_9 4) (= cell_5_9 5) (= cell_5_9 6) (= cell_5_9 7) (= cell_5_9 8) (= cell_5_9 9)))
(assert
 (or (= cell_6_9 1) (= cell_6_9 2) (= cell_6_9 3) (= cell_6_9 4) (= cell_6_9 5) (= cell_6_9 6) (= cell_6_9 7) (= cell_6_9 8) (= cell_6_9 9)))
(assert
 (or (= cell_7_9 1) (= cell_7_9 2) (= cell_7_9 3) (= cell_7_9 4) (= cell_7_9 5) (= cell_7_9 6) (= cell_7_9 7) (= cell_7_9 8) (= cell_7_9 9)))
(assert
 (let (($x9732 (= cell_8_9 5)))
 (or (= cell_8_9 1) (= cell_8_9 2) (= cell_8_9 3) (= cell_8_9 4) $x9732 (= cell_8_9 6) (= cell_8_9 7) (= cell_8_9 8) (= cell_8_9 9))))
(assert
 (or (= cell_9_9 1) (= cell_9_9 2) (= cell_9_9 3) (= cell_9_9 4) (= cell_9_9 5) (= cell_9_9 6) (= cell_9_9 7) (= cell_9_9 8) (= cell_9_9 9)))
(assert
 (and (distinct cell_1_1 cell_1_2 cell_1_3 cell_1_4 cell_1_5 cell_1_6 cell_1_7 cell_1_8 cell_1_9) true))
(assert
 (and (distinct cell_2_1 cell_2_2 cell_2_3 cell_2_4 cell_2_5 cell_2_6 cell_2_7 cell_2_8 cell_2_9) true))
(assert
 (and (distinct cell_3_1 cell_3_2 cell_3_3 cell_3_4 cell_3_5 cell_3_6 cell_3_7 cell_3_8 cell_3_9) true))
(assert
 (and (distinct cell_4_1 cell_4_2 cell_4_3 cell_4_4 cell_4_5 cell_4_6 cell_4_7 cell_4_8 cell_4_9) true))
(assert
 (and (distinct cell_5_1 cell_5_2 cell_5_3 cell_5_4 cell_5_5 cell_5_6 cell_5_7 cell_5_8 cell_5_9) true))
(assert
 (and (distinct cell_6_1 cell_6_2 cell_6_3 cell_6_4 cell_6_5 cell_6_6 cell_6_7 cell_6_8 cell_6_9) true))
(assert
 (and (distinct cell_7_1 cell_7_2 cell_7_3 cell_7_4 cell_7_5 cell_7_6 cell_7_7 cell_7_8 cell_7_9) true))
(assert
 (and (distinct cell_8_1 cell_8_2 cell_8_3 cell_8_4 cell_8_5 cell_8_6 cell_8_7 cell_8_8 cell_8_9) true))
(assert
 (and (distinct cell_9_1 cell_9_2 cell_9_3 cell_9_4 cell_9_5 cell_9_6 cell_9_7 cell_9_8 cell_9_9) true))
(assert
 (and (distinct cell_1_1 cell_2_1 cell_3_1 cell_4_1 cell_5_1 cell_6_1 cell_7_1 cell_8_1 cell_9_1) true))
(assert
 (and (distinct cell_1_2 cell_2_2 cell_3_2 cell_4_2 cell_5_2 cell_6_2 cell_7_2 cell_8_2 cell_9_2) true))
(assert
 (and (distinct cell_1_3 cell_2_3 cell_3_3 cell_4_3 cell_5_3 cell_6_3 cell_7_3 cell_8_3 cell_9_3) true))
(assert
 (and (distinct cell_1_4 cell_2_4 cell_3_4 cell_4_4 cell_5_4 cell_6_4 cell_7_4 cell_8_4 cell_9_4) true))
(assert
 (and (distinct cell_1_5 cell_2_5 cell_3_5 cell_4_5 cell_5_5 cell_6_5 cell_7_5 cell_8_5 cell_9_5) true))
(assert
 (and (distinct cell_1_6 cell_2_6 cell_3_6 cell_4_6 cell_5_6 cell_6_6 cell_7_6 cell_8_6 cell_9_6) true))
(assert
 (and (distinct cell_1_7 cell_2_7 cell_3_7 cell_4_7 cell_5_7 cell_6_7 cell_7_7 cell_8_7 cell_9_7) true))
(assert
 (and (distinct cell_1_8 cell_2_8 cell_3_8 cell_4_8 cell_5_8 cell_6_8 cell_7_8 cell_8_8 cell_9_8) true))
(assert
 (and (distinct cell_1_9 cell_2_9 cell_3_9 cell_4_9 cell_5_9 cell_6_9 cell_7_9 cell_8_9 cell_9_9) true))
(assert
 (and (distinct cell_1_1 cell_1_2 cell_1_3 cell_2_1 cell_2_2 cell_2_3 cell_3_1 cell_3_2 cell_3_3) true))
(assert
 (and (distinct cell_1_4 cell_1_5 cell_1_6 cell_2_4 cell_2_5 cell_2_6 cell_3_4 cell_3_5 cell_3_6) true))
(assert
 (and (distinct cell_1_7 cell_1_8 cell_1_9 cell_2_7 cell_2_8 cell_2_9 cell_3_7 cell_3_8 cell_3_9) true))
(assert
 (and (distinct cell_4_1 cell_4_2 cell_4_3 cell_5_1 cell_5_2 cell_5_3 cell_6_1 cell_6_2 cell_6_3) true))
(assert
 (and (distinct cell_4_4 cell_4_5 cell_4_6 cell_5_4 cell_5_5 cell_5_6 cell_6_4 cell_6_5 cell_6_6) true))
(assert
 (and (distinct cell_4_7 cell_4_8 cell_4_9 cell_5_7 cell_5_8 cell_5_9 cell_6_7 cell_6_8 cell_6_9) true))
(assert
 (and (distinct cell_7_1 cell_7_2 cell_7_3 cell_8_1 cell_8_2 cell_8_3 cell_9_1 cell_9_2 cell_9_3) true))
(assert
 (and (distinct cell_7_4 cell_7_5 cell_7_6 cell_8_4 cell_8_5 cell_8_6 cell_9_4 cell_9_5 cell_9_6) true))
(assert
 (and (distinct cell_7_7 cell_7_8 cell_7_9 cell_8_7 cell_8_8 cell_8_9 cell_9_7 cell_9_8 cell_9_9) true))
(assert
 (let (($x2510 (and (distinct cell_5_9 cell_6_8 cell_7_7 cell_8_6) true)))
 (let (($x7572 (and (distinct cell_2_9 cell_3_8 cell_4_7 cell_5_6 cell_6_5 cell_7_4 cell_8_3 cell_9_2) true)))
 (let (($x1634 (and (distinct cell_1_8 cell_2_7 cell_3_6 cell_4_5 cell_5_4 cell_6_3 cell_7_2 cell_8_1) true)))
 (let (($x8337 (and (distinct cell_1_5 cell_2_4 cell_3_3 cell_4_2) true)))
 (let (($x3330 (and (distinct cell_5_1 cell_6_2 cell_7_3 cell_8_4) true)))
 (let (($x2383 (and (distinct cell_2_1 cell_3_2 cell_4_3 cell_5_4 cell_6_5 cell_7_6 cell_8_7 cell_9_8) true)))
 (let (($x9179 (and (distinct cell_1_2 cell_2_3 cell_3_4 cell_4_5 cell_5_6 cell_6_7 cell_7_8 cell_8_9) true)))
 (let (($x872 (and (distinct cell_1_5 cell_2_6 cell_3_7 cell_4_8) true)))
 (and $x872 $x9179 $x2383 $x3330 $x8337 $x1634 $x7572 $x2510))))))))))
(assert
 (= cell_1_6 6))
(check-sat)
